Maximize
  10 x_windrower + 8 x_hay_harvester
Subject To
  c1: x_windrower + x_hay_harvester <= 200
  c2: 2 x_windrower + 1 x_hay_harvester <= 300
  c3: 5 x_windrower + 3 x_hay_harvester <= 800
Integer
  x_windrower x_hay_harvester
End